c created by edge2cnf
p cnf 500 3100
-1 -2 0
-1 -3 0
-1 -4 0
-1 -5 0
-2 -3 0
-2 -4 0
-2 -5 0
-3 -4 0
-3 -5 0
-4 -5 0
1 2 3 4 5 0
-6 -7 0
-6 -8 0
-6 -9 0
-6 -10 0
-7 -8 0
-7 -9 0
-7 -10 0
-8 -9 0
-8 -10 0
-9 -10 0
6 7 8 9 10 0
-11 -12 0
-11 -13 0
-11 -14 0
-11 -15 0
-12 -13 0
-12 -14 0
-12 -15 0
-13 -14 0
-13 -15 0
-14 -15 0
11 12 13 14 15 0
-16 -17 0
-16 -18 0
-16 -19 0
-16 -20 0
-17 -18 0
-17 -19 0
-17 -20 0
-18 -19 0
-18 -20 0
-19 -20 0
16 17 18 19 20 0
-21 -22 0
-21 -23 0
-21 -24 0
-21 -25 0
-22 -23 0
-22 -24 0
-22 -25 0
-23 -24 0
-23 -25 0
-24 -25 0
21 22 23 24 25 0
-26 -27 0
-26 -28 0
-26 -29 0
-26 -30 0
-27 -28 0
-27 -29 0
-27 -30 0
-28 -29 0
-28 -30 0
-29 -30 0
26 27 28 29 30 0
-31 -32 0
-31 -33 0
-31 -34 0
-31 -35 0
-32 -33 0
-32 -34 0
-32 -35 0
-33 -34 0
-33 -35 0
-34 -35 0
31 32 33 34 35 0
-36 -37 0
-36 -38 0
-36 -39 0
-36 -40 0
-37 -38 0
-37 -39 0
-37 -40 0
-38 -39 0
-38 -40 0
-39 -40 0
36 37 38 39 40 0
-41 -42 0
-41 -43 0
-41 -44 0
-41 -45 0
-42 -43 0
-42 -44 0
-42 -45 0
-43 -44 0
-43 -45 0
-44 -45 0
41 42 43 44 45 0
-46 -47 0
-46 -48 0
-46 -49 0
-46 -50 0
-47 -48 0
-47 -49 0
-47 -50 0
-48 -49 0
-48 -50 0
-49 -50 0
46 47 48 49 50 0
-51 -52 0
-51 -53 0
-51 -54 0
-51 -55 0
-52 -53 0
-52 -54 0
-52 -55 0
-53 -54 0
-53 -55 0
-54 -55 0
51 52 53 54 55 0
-56 -57 0
-56 -58 0
-56 -59 0
-56 -60 0
-57 -58 0
-57 -59 0
-57 -60 0
-58 -59 0
-58 -60 0
-59 -60 0
56 57 58 59 60 0
-61 -62 0
-61 -63 0
-61 -64 0
-61 -65 0
-62 -63 0
-62 -64 0
-62 -65 0
-63 -64 0
-63 -65 0
-64 -65 0
61 62 63 64 65 0
-66 -67 0
-66 -68 0
-66 -69 0
-66 -70 0
-67 -68 0
-67 -69 0
-67 -70 0
-68 -69 0
-68 -70 0
-69 -70 0
66 67 68 69 70 0
-71 -72 0
-71 -73 0
-71 -74 0
-71 -75 0
-72 -73 0
-72 -74 0
-72 -75 0
-73 -74 0
-73 -75 0
-74 -75 0
71 72 73 74 75 0
-76 -77 0
-76 -78 0
-76 -79 0
-76 -80 0
-77 -78 0
-77 -79 0
-77 -80 0
-78 -79 0
-78 -80 0
-79 -80 0
76 77 78 79 80 0
-81 -82 0
-81 -83 0
-81 -84 0
-81 -85 0
-82 -83 0
-82 -84 0
-82 -85 0
-83 -84 0
-83 -85 0
-84 -85 0
81 82 83 84 85 0
-86 -87 0
-86 -88 0
-86 -89 0
-86 -90 0
-87 -88 0
-87 -89 0
-87 -90 0
-88 -89 0
-88 -90 0
-89 -90 0
86 87 88 89 90 0
-91 -92 0
-91 -93 0
-91 -94 0
-91 -95 0
-92 -93 0
-92 -94 0
-92 -95 0
-93 -94 0
-93 -95 0
-94 -95 0
91 92 93 94 95 0
-96 -97 0
-96 -98 0
-96 -99 0
-96 -100 0
-97 -98 0
-97 -99 0
-97 -100 0
-98 -99 0
-98 -100 0
-99 -100 0
96 97 98 99 100 0
-101 -102 0
-101 -103 0
-101 -104 0
-101 -105 0
-102 -103 0
-102 -104 0
-102 -105 0
-103 -104 0
-103 -105 0
-104 -105 0
101 102 103 104 105 0
-106 -107 0
-106 -108 0
-106 -109 0
-106 -110 0
-107 -108 0
-107 -109 0
-107 -110 0
-108 -109 0
-108 -110 0
-109 -110 0
106 107 108 109 110 0
-111 -112 0
-111 -113 0
-111 -114 0
-111 -115 0
-112 -113 0
-112 -114 0
-112 -115 0
-113 -114 0
-113 -115 0
-114 -115 0
111 112 113 114 115 0
-116 -117 0
-116 -118 0
-116 -119 0
-116 -120 0
-117 -118 0
-117 -119 0
-117 -120 0
-118 -119 0
-118 -120 0
-119 -120 0
116 117 118 119 120 0
-121 -122 0
-121 -123 0
-121 -124 0
-121 -125 0
-122 -123 0
-122 -124 0
-122 -125 0
-123 -124 0
-123 -125 0
-124 -125 0
121 122 123 124 125 0
-126 -127 0
-126 -128 0
-126 -129 0
-126 -130 0
-127 -128 0
-127 -129 0
-127 -130 0
-128 -129 0
-128 -130 0
-129 -130 0
126 127 128 129 130 0
-131 -132 0
-131 -133 0
-131 -134 0
-131 -135 0
-132 -133 0
-132 -134 0
-132 -135 0
-133 -134 0
-133 -135 0
-134 -135 0
131 132 133 134 135 0
-136 -137 0
-136 -138 0
-136 -139 0
-136 -140 0
-137 -138 0
-137 -139 0
-137 -140 0
-138 -139 0
-138 -140 0
-139 -140 0
136 137 138 139 140 0
-141 -142 0
-141 -143 0
-141 -144 0
-141 -145 0
-142 -143 0
-142 -144 0
-142 -145 0
-143 -144 0
-143 -145 0
-144 -145 0
141 142 143 144 145 0
-146 -147 0
-146 -148 0
-146 -149 0
-146 -150 0
-147 -148 0
-147 -149 0
-147 -150 0
-148 -149 0
-148 -150 0
-149 -150 0
146 147 148 149 150 0
-151 -152 0
-151 -153 0
-151 -154 0
-151 -155 0
-152 -153 0
-152 -154 0
-152 -155 0
-153 -154 0
-153 -155 0
-154 -155 0
151 152 153 154 155 0
-156 -157 0
-156 -158 0
-156 -159 0
-156 -160 0
-157 -158 0
-157 -159 0
-157 -160 0
-158 -159 0
-158 -160 0
-159 -160 0
156 157 158 159 160 0
-161 -162 0
-161 -163 0
-161 -164 0
-161 -165 0
-162 -163 0
-162 -164 0
-162 -165 0
-163 -164 0
-163 -165 0
-164 -165 0
161 162 163 164 165 0
-166 -167 0
-166 -168 0
-166 -169 0
-166 -170 0
-167 -168 0
-167 -169 0
-167 -170 0
-168 -169 0
-168 -170 0
-169 -170 0
166 167 168 169 170 0
-171 -172 0
-171 -173 0
-171 -174 0
-171 -175 0
-172 -173 0
-172 -174 0
-172 -175 0
-173 -174 0
-173 -175 0
-174 -175 0
171 172 173 174 175 0
-176 -177 0
-176 -178 0
-176 -179 0
-176 -180 0
-177 -178 0
-177 -179 0
-177 -180 0
-178 -179 0
-178 -180 0
-179 -180 0
176 177 178 179 180 0
-181 -182 0
-181 -183 0
-181 -184 0
-181 -185 0
-182 -183 0
-182 -184 0
-182 -185 0
-183 -184 0
-183 -185 0
-184 -185 0
181 182 183 184 185 0
-186 -187 0
-186 -188 0
-186 -189 0
-186 -190 0
-187 -188 0
-187 -189 0
-187 -190 0
-188 -189 0
-188 -190 0
-189 -190 0
186 187 188 189 190 0
-191 -192 0
-191 -193 0
-191 -194 0
-191 -195 0
-192 -193 0
-192 -194 0
-192 -195 0
-193 -194 0
-193 -195 0
-194 -195 0
191 192 193 194 195 0
-196 -197 0
-196 -198 0
-196 -199 0
-196 -200 0
-197 -198 0
-197 -199 0
-197 -200 0
-198 -199 0
-198 -200 0
-199 -200 0
196 197 198 199 200 0
-201 -202 0
-201 -203 0
-201 -204 0
-201 -205 0
-202 -203 0
-202 -204 0
-202 -205 0
-203 -204 0
-203 -205 0
-204 -205 0
201 202 203 204 205 0
-206 -207 0
-206 -208 0
-206 -209 0
-206 -210 0
-207 -208 0
-207 -209 0
-207 -210 0
-208 -209 0
-208 -210 0
-209 -210 0
206 207 208 209 210 0
-211 -212 0
-211 -213 0
-211 -214 0
-211 -215 0
-212 -213 0
-212 -214 0
-212 -215 0
-213 -214 0
-213 -215 0
-214 -215 0
211 212 213 214 215 0
-216 -217 0
-216 -218 0
-216 -219 0
-216 -220 0
-217 -218 0
-217 -219 0
-217 -220 0
-218 -219 0
-218 -220 0
-219 -220 0
216 217 218 219 220 0
-221 -222 0
-221 -223 0
-221 -224 0
-221 -225 0
-222 -223 0
-222 -224 0
-222 -225 0
-223 -224 0
-223 -225 0
-224 -225 0
221 222 223 224 225 0
-226 -227 0
-226 -228 0
-226 -229 0
-226 -230 0
-227 -228 0
-227 -229 0
-227 -230 0
-228 -229 0
-228 -230 0
-229 -230 0
226 227 228 229 230 0
-231 -232 0
-231 -233 0
-231 -234 0
-231 -235 0
-232 -233 0
-232 -234 0
-232 -235 0
-233 -234 0
-233 -235 0
-234 -235 0
231 232 233 234 235 0
-236 -237 0
-236 -238 0
-236 -239 0
-236 -240 0
-237 -238 0
-237 -239 0
-237 -240 0
-238 -239 0
-238 -240 0
-239 -240 0
236 237 238 239 240 0
-241 -242 0
-241 -243 0
-241 -244 0
-241 -245 0
-242 -243 0
-242 -244 0
-242 -245 0
-243 -244 0
-243 -245 0
-244 -245 0
241 242 243 244 245 0
-246 -247 0
-246 -248 0
-246 -249 0
-246 -250 0
-247 -248 0
-247 -249 0
-247 -250 0
-248 -249 0
-248 -250 0
-249 -250 0
246 247 248 249 250 0
-251 -252 0
-251 -253 0
-251 -254 0
-251 -255 0
-252 -253 0
-252 -254 0
-252 -255 0
-253 -254 0
-253 -255 0
-254 -255 0
251 252 253 254 255 0
-256 -257 0
-256 -258 0
-256 -259 0
-256 -260 0
-257 -258 0
-257 -259 0
-257 -260 0
-258 -259 0
-258 -260 0
-259 -260 0
256 257 258 259 260 0
-261 -262 0
-261 -263 0
-261 -264 0
-261 -265 0
-262 -263 0
-262 -264 0
-262 -265 0
-263 -264 0
-263 -265 0
-264 -265 0
261 262 263 264 265 0
-266 -267 0
-266 -268 0
-266 -269 0
-266 -270 0
-267 -268 0
-267 -269 0
-267 -270 0
-268 -269 0
-268 -270 0
-269 -270 0
266 267 268 269 270 0
-271 -272 0
-271 -273 0
-271 -274 0
-271 -275 0
-272 -273 0
-272 -274 0
-272 -275 0
-273 -274 0
-273 -275 0
-274 -275 0
271 272 273 274 275 0
-276 -277 0
-276 -278 0
-276 -279 0
-276 -280 0
-277 -278 0
-277 -279 0
-277 -280 0
-278 -279 0
-278 -280 0
-279 -280 0
276 277 278 279 280 0
-281 -282 0
-281 -283 0
-281 -284 0
-281 -285 0
-282 -283 0
-282 -284 0
-282 -285 0
-283 -284 0
-283 -285 0
-284 -285 0
281 282 283 284 285 0
-286 -287 0
-286 -288 0
-286 -289 0
-286 -290 0
-287 -288 0
-287 -289 0
-287 -290 0
-288 -289 0
-288 -290 0
-289 -290 0
286 287 288 289 290 0
-291 -292 0
-291 -293 0
-291 -294 0
-291 -295 0
-292 -293 0
-292 -294 0
-292 -295 0
-293 -294 0
-293 -295 0
-294 -295 0
291 292 293 294 295 0
-296 -297 0
-296 -298 0
-296 -299 0
-296 -300 0
-297 -298 0
-297 -299 0
-297 -300 0
-298 -299 0
-298 -300 0
-299 -300 0
296 297 298 299 300 0
-301 -302 0
-301 -303 0
-301 -304 0
-301 -305 0
-302 -303 0
-302 -304 0
-302 -305 0
-303 -304 0
-303 -305 0
-304 -305 0
301 302 303 304 305 0
-306 -307 0
-306 -308 0
-306 -309 0
-306 -310 0
-307 -308 0
-307 -309 0
-307 -310 0
-308 -309 0
-308 -310 0
-309 -310 0
306 307 308 309 310 0
-311 -312 0
-311 -313 0
-311 -314 0
-311 -315 0
-312 -313 0
-312 -314 0
-312 -315 0
-313 -314 0
-313 -315 0
-314 -315 0
311 312 313 314 315 0
-316 -317 0
-316 -318 0
-316 -319 0
-316 -320 0
-317 -318 0
-317 -319 0
-317 -320 0
-318 -319 0
-318 -320 0
-319 -320 0
316 317 318 319 320 0
-321 -322 0
-321 -323 0
-321 -324 0
-321 -325 0
-322 -323 0
-322 -324 0
-322 -325 0
-323 -324 0
-323 -325 0
-324 -325 0
321 322 323 324 325 0
-326 -327 0
-326 -328 0
-326 -329 0
-326 -330 0
-327 -328 0
-327 -329 0
-327 -330 0
-328 -329 0
-328 -330 0
-329 -330 0
326 327 328 329 330 0
-331 -332 0
-331 -333 0
-331 -334 0
-331 -335 0
-332 -333 0
-332 -334 0
-332 -335 0
-333 -334 0
-333 -335 0
-334 -335 0
331 332 333 334 335 0
-336 -337 0
-336 -338 0
-336 -339 0
-336 -340 0
-337 -338 0
-337 -339 0
-337 -340 0
-338 -339 0
-338 -340 0
-339 -340 0
336 337 338 339 340 0
-341 -342 0
-341 -343 0
-341 -344 0
-341 -345 0
-342 -343 0
-342 -344 0
-342 -345 0
-343 -344 0
-343 -345 0
-344 -345 0
341 342 343 344 345 0
-346 -347 0
-346 -348 0
-346 -349 0
-346 -350 0
-347 -348 0
-347 -349 0
-347 -350 0
-348 -349 0
-348 -350 0
-349 -350 0
346 347 348 349 350 0
-351 -352 0
-351 -353 0
-351 -354 0
-351 -355 0
-352 -353 0
-352 -354 0
-352 -355 0
-353 -354 0
-353 -355 0
-354 -355 0
351 352 353 354 355 0
-356 -357 0
-356 -358 0
-356 -359 0
-356 -360 0
-357 -358 0
-357 -359 0
-357 -360 0
-358 -359 0
-358 -360 0
-359 -360 0
356 357 358 359 360 0
-361 -362 0
-361 -363 0
-361 -364 0
-361 -365 0
-362 -363 0
-362 -364 0
-362 -365 0
-363 -364 0
-363 -365 0
-364 -365 0
361 362 363 364 365 0
-366 -367 0
-366 -368 0
-366 -369 0
-366 -370 0
-367 -368 0
-367 -369 0
-367 -370 0
-368 -369 0
-368 -370 0
-369 -370 0
366 367 368 369 370 0
-371 -372 0
-371 -373 0
-371 -374 0
-371 -375 0
-372 -373 0
-372 -374 0
-372 -375 0
-373 -374 0
-373 -375 0
-374 -375 0
371 372 373 374 375 0
-376 -377 0
-376 -378 0
-376 -379 0
-376 -380 0
-377 -378 0
-377 -379 0
-377 -380 0
-378 -379 0
-378 -380 0
-379 -380 0
376 377 378 379 380 0
-381 -382 0
-381 -383 0
-381 -384 0
-381 -385 0
-382 -383 0
-382 -384 0
-382 -385 0
-383 -384 0
-383 -385 0
-384 -385 0
381 382 383 384 385 0
-386 -387 0
-386 -388 0
-386 -389 0
-386 -390 0
-387 -388 0
-387 -389 0
-387 -390 0
-388 -389 0
-388 -390 0
-389 -390 0
386 387 388 389 390 0
-391 -392 0
-391 -393 0
-391 -394 0
-391 -395 0
-392 -393 0
-392 -394 0
-392 -395 0
-393 -394 0
-393 -395 0
-394 -395 0
391 392 393 394 395 0
-396 -397 0
-396 -398 0
-396 -399 0
-396 -400 0
-397 -398 0
-397 -399 0
-397 -400 0
-398 -399 0
-398 -400 0
-399 -400 0
396 397 398 399 400 0
-401 -402 0
-401 -403 0
-401 -404 0
-401 -405 0
-402 -403 0
-402 -404 0
-402 -405 0
-403 -404 0
-403 -405 0
-404 -405 0
401 402 403 404 405 0
-406 -407 0
-406 -408 0
-406 -409 0
-406 -410 0
-407 -408 0
-407 -409 0
-407 -410 0
-408 -409 0
-408 -410 0
-409 -410 0
406 407 408 409 410 0
-411 -412 0
-411 -413 0
-411 -414 0
-411 -415 0
-412 -413 0
-412 -414 0
-412 -415 0
-413 -414 0
-413 -415 0
-414 -415 0
411 412 413 414 415 0
-416 -417 0
-416 -418 0
-416 -419 0
-416 -420 0
-417 -418 0
-417 -419 0
-417 -420 0
-418 -419 0
-418 -420 0
-419 -420 0
416 417 418 419 420 0
-421 -422 0
-421 -423 0
-421 -424 0
-421 -425 0
-422 -423 0
-422 -424 0
-422 -425 0
-423 -424 0
-423 -425 0
-424 -425 0
421 422 423 424 425 0
-426 -427 0
-426 -428 0
-426 -429 0
-426 -430 0
-427 -428 0
-427 -429 0
-427 -430 0
-428 -429 0
-428 -430 0
-429 -430 0
426 427 428 429 430 0
-431 -432 0
-431 -433 0
-431 -434 0
-431 -435 0
-432 -433 0
-432 -434 0
-432 -435 0
-433 -434 0
-433 -435 0
-434 -435 0
431 432 433 434 435 0
-436 -437 0
-436 -438 0
-436 -439 0
-436 -440 0
-437 -438 0
-437 -439 0
-437 -440 0
-438 -439 0
-438 -440 0
-439 -440 0
436 437 438 439 440 0
-441 -442 0
-441 -443 0
-441 -444 0
-441 -445 0
-442 -443 0
-442 -444 0
-442 -445 0
-443 -444 0
-443 -445 0
-444 -445 0
441 442 443 444 445 0
-446 -447 0
-446 -448 0
-446 -449 0
-446 -450 0
-447 -448 0
-447 -449 0
-447 -450 0
-448 -449 0
-448 -450 0
-449 -450 0
446 447 448 449 450 0
-451 -452 0
-451 -453 0
-451 -454 0
-451 -455 0
-452 -453 0
-452 -454 0
-452 -455 0
-453 -454 0
-453 -455 0
-454 -455 0
451 452 453 454 455 0
-456 -457 0
-456 -458 0
-456 -459 0
-456 -460 0
-457 -458 0
-457 -459 0
-457 -460 0
-458 -459 0
-458 -460 0
-459 -460 0
456 457 458 459 460 0
-461 -462 0
-461 -463 0
-461 -464 0
-461 -465 0
-462 -463 0
-462 -464 0
-462 -465 0
-463 -464 0
-463 -465 0
-464 -465 0
461 462 463 464 465 0
-466 -467 0
-466 -468 0
-466 -469 0
-466 -470 0
-467 -468 0
-467 -469 0
-467 -470 0
-468 -469 0
-468 -470 0
-469 -470 0
466 467 468 469 470 0
-471 -472 0
-471 -473 0
-471 -474 0
-471 -475 0
-472 -473 0
-472 -474 0
-472 -475 0
-473 -474 0
-473 -475 0
-474 -475 0
471 472 473 474 475 0
-476 -477 0
-476 -478 0
-476 -479 0
-476 -480 0
-477 -478 0
-477 -479 0
-477 -480 0
-478 -479 0
-478 -480 0
-479 -480 0
476 477 478 479 480 0
-481 -482 0
-481 -483 0
-481 -484 0
-481 -485 0
-482 -483 0
-482 -484 0
-482 -485 0
-483 -484 0
-483 -485 0
-484 -485 0
481 482 483 484 485 0
-486 -487 0
-486 -488 0
-486 -489 0
-486 -490 0
-487 -488 0
-487 -489 0
-487 -490 0
-488 -489 0
-488 -490 0
-489 -490 0
486 487 488 489 490 0
-491 -492 0
-491 -493 0
-491 -494 0
-491 -495 0
-492 -493 0
-492 -494 0
-492 -495 0
-493 -494 0
-493 -495 0
-494 -495 0
491 492 493 494 495 0
-496 -497 0
-496 -498 0
-496 -499 0
-496 -500 0
-497 -498 0
-497 -499 0
-497 -500 0
-498 -499 0
-498 -500 0
-499 -500 0
496 497 498 499 500 0
-6 -21 0
-7 -22 0
-8 -23 0
-9 -24 0
-10 -25 0
-46 -66 0
-47 -67 0
-48 -68 0
-49 -69 0
-50 -70 0
-51 -61 0
-52 -62 0
-53 -63 0
-54 -64 0
-55 -65 0
-61 -66 0
-62 -67 0
-63 -68 0
-64 -69 0
-65 -70 0
-61 -71 0
-62 -72 0
-63 -73 0
-64 -74 0
-65 -75 0
-66 -86 0
-67 -87 0
-68 -88 0
-69 -89 0
-70 -90 0
-91 -96 0
-92 -97 0
-93 -98 0
-94 -99 0
-95 -100 0
-91 -111 0
-92 -112 0
-93 -113 0
-94 -114 0
-95 -115 0
-121 -131 0
-122 -132 0
-123 -133 0
-124 -134 0
-125 -135 0
-126 -131 0
-127 -132 0
-128 -133 0
-129 -134 0
-130 -135 0
-126 -141 0
-127 -142 0
-128 -143 0
-129 -144 0
-130 -145 0
-126 -146 0
-127 -147 0
-128 -148 0
-129 -149 0
-130 -150 0
-146 -151 0
-147 -152 0
-148 -153 0
-149 -154 0
-150 -155 0
-151 -156 0
-152 -157 0
-153 -158 0
-154 -159 0
-155 -160 0
-156 -171 0
-157 -172 0
-158 -173 0
-159 -174 0
-160 -175 0
-166 -181 0
-167 -182 0
-168 -183 0
-169 -184 0
-170 -185 0
-171 -186 0
-172 -187 0
-173 -188 0
-174 -189 0
-175 -190 0
-181 -186 0
-182 -187 0
-183 -188 0
-184 -189 0
-185 -190 0
-196 -216 0
-197 -217 0
-198 -218 0
-199 -219 0
-200 -220 0
-206 -221 0
-207 -222 0
-208 -223 0
-209 -224 0
-210 -225 0
-211 -216 0
-212 -217 0
-213 -218 0
-214 -219 0
-215 -220 0
-226 -231 0
-227 -232 0
-228 -233 0
-229 -234 0
-230 -235 0
-256 -261 0
-257 -262 0
-258 -263 0
-259 -264 0
-260 -265 0
-256 -271 0
-257 -272 0
-258 -273 0
-259 -274 0
-260 -275 0
-266 -276 0
-267 -277 0
-268 -278 0
-269 -279 0
-270 -280 0
-276 -296 0
-277 -297 0
-278 -298 0
-279 -299 0
-280 -300 0
-316 -331 0
-317 -332 0
-318 -333 0
-319 -334 0
-320 -335 0
-351 -366 0
-352 -367 0
-353 -368 0
-354 -369 0
-355 -370 0
-356 -366 0
-357 -367 0
-358 -368 0
-359 -369 0
-360 -370 0
-361 -381 0
-362 -382 0
-363 -383 0
-364 -384 0
-365 -385 0
-421 -431 0
-422 -432 0
-423 -433 0
-424 -434 0
-425 -435 0
-426 -431 0
-427 -432 0
-428 -433 0
-429 -434 0
-430 -435 0
-466 -481 0
-467 -482 0
-468 -483 0
-469 -484 0
-470 -485 0
-476 -496 0
-477 -497 0
-478 -498 0
-479 -499 0
-480 -500 0
-481 -496 0
-482 -497 0
-483 -498 0
-484 -499 0
-485 -500 0
-1 -31 0
-2 -32 0
-3 -33 0
-4 -34 0
-5 -35 0
-1 -106 0
-2 -107 0
-3 -108 0
-4 -109 0
-5 -110 0
-1 -201 0
-2 -202 0
-3 -203 0
-4 -204 0
-5 -205 0
-1 -226 0
-2 -227 0
-3 -228 0
-4 -229 0
-5 -230 0
-1 -356 0
-2 -357 0
-3 -358 0
-4 -359 0
-5 -360 0
-1 -401 0
-2 -402 0
-3 -403 0
-4 -404 0
-5 -405 0
-6 -36 0
-7 -37 0
-8 -38 0
-9 -39 0
-10 -40 0
-6 -191 0
-7 -192 0
-8 -193 0
-9 -194 0
-10 -195 0
-6 -351 0
-7 -352 0
-8 -353 0
-9 -354 0
-10 -355 0
-6 -471 0
-7 -472 0
-8 -473 0
-9 -474 0
-10 -475 0
-11 -61 0
-12 -62 0
-13 -63 0
-14 -64 0
-15 -65 0
-11 -341 0
-12 -342 0
-13 -343 0
-14 -344 0
-15 -345 0
-11 -411 0
-12 -412 0
-13 -413 0
-14 -414 0
-15 -415 0
-16 -96 0
-17 -97 0
-18 -98 0
-19 -99 0
-20 -100 0
-16 -106 0
-17 -107 0
-18 -108 0
-19 -109 0
-20 -110 0
-16 -116 0
-17 -117 0
-18 -118 0
-19 -119 0
-20 -120 0
-16 -211 0
-17 -212 0
-18 -213 0
-19 -214 0
-20 -215 0
-16 -221 0
-17 -222 0
-18 -223 0
-19 -224 0
-20 -225 0
-16 -226 0
-17 -227 0
-18 -228 0
-19 -229 0
-20 -230 0
-16 -256 0
-17 -257 0
-18 -258 0
-19 -259 0
-20 -260 0
-16 -386 0
-17 -387 0
-18 -388 0
-19 -389 0
-20 -390 0
-16 -401 0
-17 -402 0
-18 -403 0
-19 -404 0
-20 -405 0
-16 -446 0
-17 -447 0
-18 -448 0
-19 -449 0
-20 -450 0
-21 -91 0
-22 -92 0
-23 -93 0
-24 -94 0
-25 -95 0
-21 -96 0
-22 -97 0
-23 -98 0
-24 -99 0
-25 -100 0
-21 -111 0
-22 -112 0
-23 -113 0
-24 -114 0
-25 -115 0
-21 -131 0
-22 -132 0
-23 -133 0
-24 -134 0
-25 -135 0
-21 -146 0
-22 -147 0
-23 -148 0
-24 -149 0
-25 -150 0
-21 -286 0
-22 -287 0
-23 -288 0
-24 -289 0
-25 -290 0
-21 -396 0
-22 -397 0
-23 -398 0
-24 -399 0
-25 -400 0
-26 -71 0
-27 -72 0
-28 -73 0
-29 -74 0
-30 -75 0
-26 -306 0
-27 -307 0
-28 -308 0
-29 -309 0
-30 -310 0
-26 -336 0
-27 -337 0
-28 -338 0
-29 -339 0
-30 -340 0
-26 -376 0
-27 -377 0
-28 -378 0
-29 -379 0
-30 -380 0
-26 -456 0
-27 -457 0
-28 -458 0
-29 -459 0
-30 -460 0
-31 -76 0
-32 -77 0
-33 -78 0
-34 -79 0
-35 -80 0
-31 -131 0
-32 -132 0
-33 -133 0
-34 -134 0
-35 -135 0
-31 -141 0
-32 -142 0
-33 -143 0
-34 -144 0
-35 -145 0
-31 -181 0
-32 -182 0
-33 -183 0
-34 -184 0
-35 -185 0
-31 -246 0
-32 -247 0
-33 -248 0
-34 -249 0
-35 -250 0
-31 -266 0
-32 -267 0
-33 -268 0
-34 -269 0
-35 -270 0
-31 -321 0
-32 -322 0
-33 -323 0
-34 -324 0
-35 -325 0
-31 -381 0
-32 -382 0
-33 -383 0
-34 -384 0
-35 -385 0
-31 -401 0
-32 -402 0
-33 -403 0
-34 -404 0
-35 -405 0
-36 -241 0
-37 -242 0
-38 -243 0
-39 -244 0
-40 -245 0
-36 -246 0
-37 -247 0
-38 -248 0
-39 -249 0
-40 -250 0
-36 -331 0
-37 -332 0
-38 -333 0
-39 -334 0
-40 -335 0
-36 -401 0
-37 -402 0
-38 -403 0
-39 -404 0
-40 -405 0
-41 -161 0
-42 -162 0
-43 -163 0
-44 -164 0
-45 -165 0
-41 -266 0
-42 -267 0
-43 -268 0
-44 -269 0
-45 -270 0
-41 -291 0
-42 -292 0
-43 -293 0
-44 -294 0
-45 -295 0
-41 -326 0
-42 -327 0
-43 -328 0
-44 -329 0
-45 -330 0
-41 -466 0
-42 -467 0
-43 -468 0
-44 -469 0
-45 -470 0
-41 -496 0
-42 -497 0
-43 -498 0
-44 -499 0
-45 -500 0
-46 -71 0
-47 -72 0
-48 -73 0
-49 -74 0
-50 -75 0
-46 -186 0
-47 -187 0
-48 -188 0
-49 -189 0
-50 -190 0
-46 -251 0
-47 -252 0
-48 -253 0
-49 -254 0
-50 -255 0
-46 -261 0
-47 -262 0
-48 -263 0
-49 -264 0
-50 -265 0
-46 -291 0
-47 -292 0
-48 -293 0
-49 -294 0
-50 -295 0
-46 -311 0
-47 -312 0
-48 -313 0
-49 -314 0
-50 -315 0
-46 -426 0
-47 -427 0
-48 -428 0
-49 -429 0
-50 -430 0
-46 -436 0
-47 -437 0
-48 -438 0
-49 -439 0
-50 -440 0
-51 -166 0
-52 -167 0
-53 -168 0
-54 -169 0
-55 -170 0
-51 -356 0
-52 -357 0
-53 -358 0
-54 -359 0
-55 -360 0
-51 -406 0
-52 -407 0
-53 -408 0
-54 -409 0
-55 -410 0
-51 -421 0
-52 -422 0
-53 -423 0
-54 -424 0
-55 -425 0
-56 -126 0
-57 -127 0
-58 -128 0
-59 -129 0
-60 -130 0
-56 -346 0
-57 -347 0
-58 -348 0
-59 -349 0
-60 -350 0
-56 -356 0
-57 -357 0
-58 -358 0
-59 -359 0
-60 -360 0
-56 -391 0
-57 -392 0
-58 -393 0
-59 -394 0
-60 -395 0
-56 -406 0
-57 -407 0
-58 -408 0
-59 -409 0
-60 -410 0
-56 -436 0
-57 -437 0
-58 -438 0
-59 -439 0
-60 -440 0
-56 -461 0
-57 -462 0
-58 -463 0
-59 -464 0
-60 -465 0
-61 -161 0
-62 -162 0
-63 -163 0
-64 -164 0
-65 -165 0
-61 -266 0
-62 -267 0
-63 -268 0
-64 -269 0
-65 -270 0
-61 -386 0
-62 -387 0
-63 -388 0
-64 -389 0
-65 -390 0
-61 -446 0
-62 -447 0
-63 -448 0
-64 -449 0
-65 -450 0
-61 -486 0
-62 -487 0
-63 -488 0
-64 -489 0
-65 -490 0
-66 -151 0
-67 -152 0
-68 -153 0
-69 -154 0
-70 -155 0
-66 -276 0
-67 -277 0
-68 -278 0
-69 -279 0
-70 -280 0
-66 -316 0
-67 -317 0
-68 -318 0
-69 -319 0
-70 -320 0
-66 -346 0
-67 -347 0
-68 -348 0
-69 -349 0
-70 -350 0
-66 -371 0
-67 -372 0
-68 -373 0
-69 -374 0
-70 -375 0
-66 -401 0
-67 -402 0
-68 -403 0
-69 -404 0
-70 -405 0
-71 -186 0
-72 -187 0
-73 -188 0
-74 -189 0
-75 -190 0
-71 -286 0
-72 -287 0
-73 -288 0
-74 -289 0
-75 -290 0
-76 -326 0
-77 -327 0
-78 -328 0
-79 -329 0
-80 -330 0
-76 -421 0
-77 -422 0
-78 -423 0
-79 -424 0
-80 -425 0
-76 -431 0
-77 -432 0
-78 -433 0
-79 -434 0
-80 -435 0
-81 -311 0
-82 -312 0
-83 -313 0
-84 -314 0
-85 -315 0
-81 -396 0
-82 -397 0
-83 -398 0
-84 -399 0
-85 -400 0
-81 -406 0
-82 -407 0
-83 -408 0
-84 -409 0
-85 -410 0
-86 -151 0
-87 -152 0
-88 -153 0
-89 -154 0
-90 -155 0
-86 -196 0
-87 -197 0
-88 -198 0
-89 -199 0
-90 -200 0
-86 -201 0
-87 -202 0
-88 -203 0
-89 -204 0
-90 -205 0
-86 -241 0
-87 -242 0
-88 -243 0
-89 -244 0
-90 -245 0
-86 -266 0
-87 -267 0
-88 -268 0
-89 -269 0
-90 -270 0
-86 -281 0
-87 -282 0
-88 -283 0
-89 -284 0
-90 -285 0
-86 -326 0
-87 -327 0
-88 -328 0
-89 -329 0
-90 -330 0
-86 -336 0
-87 -337 0
-88 -338 0
-89 -339 0
-90 -340 0
-86 -401 0
-87 -402 0
-88 -403 0
-89 -404 0
-90 -405 0
-86 -436 0
-87 -437 0
-88 -438 0
-89 -439 0
-90 -440 0
-86 -481 0
-87 -482 0
-88 -483 0
-89 -484 0
-90 -485 0
-91 -246 0
-92 -247 0
-93 -248 0
-94 -249 0
-95 -250 0
-91 -261 0
-92 -262 0
-93 -263 0
-94 -264 0
-95 -265 0
-91 -311 0
-92 -312 0
-93 -313 0
-94 -314 0
-95 -315 0
-91 -401 0
-92 -402 0
-93 -403 0
-94 -404 0
-95 -405 0
-91 -436 0
-92 -437 0
-93 -438 0
-94 -439 0
-95 -440 0
-96 -136 0
-97 -137 0
-98 -138 0
-99 -139 0
-100 -140 0
-96 -141 0
-97 -142 0
-98 -143 0
-99 -144 0
-100 -145 0
-96 -161 0
-97 -162 0
-98 -163 0
-99 -164 0
-100 -165 0
-96 -271 0
-97 -272 0
-98 -273 0
-99 -274 0
-100 -275 0
-96 -321 0
-97 -322 0
-98 -323 0
-99 -324 0
-100 -325 0
-96 -346 0
-97 -347 0
-98 -348 0
-99 -349 0
-100 -350 0
-96 -351 0
-97 -352 0
-98 -353 0
-99 -354 0
-100 -355 0
-96 -406 0
-97 -407 0
-98 -408 0
-99 -409 0
-100 -410 0
-101 -136 0
-102 -137 0
-103 -138 0
-104 -139 0
-105 -140 0
-101 -146 0
-102 -147 0
-103 -148 0
-104 -149 0
-105 -150 0
-101 -201 0
-102 -202 0
-103 -203 0
-104 -204 0
-105 -205 0
-101 -251 0
-102 -252 0
-103 -253 0
-104 -254 0
-105 -255 0
-101 -301 0
-102 -302 0
-103 -303 0
-104 -304 0
-105 -305 0
-101 -336 0
-102 -337 0
-103 -338 0
-104 -339 0
-105 -340 0
-101 -426 0
-102 -427 0
-103 -428 0
-104 -429 0
-105 -430 0
-106 -371 0
-107 -372 0
-108 -373 0
-109 -374 0
-110 -375 0
-106 -426 0
-107 -427 0
-108 -428 0
-109 -429 0
-110 -430 0
-106 -446 0
-107 -447 0
-108 -448 0
-109 -449 0
-110 -450 0
-111 -161 0
-112 -162 0
-113 -163 0
-114 -164 0
-115 -165 0
-111 -286 0
-112 -287 0
-113 -288 0
-114 -289 0
-115 -290 0
-111 -306 0
-112 -307 0
-113 -308 0
-114 -309 0
-115 -310 0
-111 -316 0
-112 -317 0
-113 -318 0
-114 -319 0
-115 -320 0
-111 -321 0
-112 -322 0
-113 -323 0
-114 -324 0
-115 -325 0
-111 -361 0
-112 -362 0
-113 -363 0
-114 -364 0
-115 -365 0
-111 -491 0
-112 -492 0
-113 -493 0
-114 -494 0
-115 -495 0
-116 -276 0
-117 -277 0
-118 -278 0
-119 -279 0
-120 -280 0
-116 -316 0
-117 -317 0
-118 -318 0
-119 -319 0
-120 -320 0
-116 -401 0
-117 -402 0
-118 -403 0
-119 -404 0
-120 -405 0
-121 -191 0
-122 -192 0
-123 -193 0
-124 -194 0
-125 -195 0
-121 -276 0
-122 -277 0
-123 -278 0
-124 -279 0
-125 -280 0
-121 -321 0
-122 -322 0
-123 -323 0
-124 -324 0
-125 -325 0
-121 -346 0
-122 -347 0
-123 -348 0
-124 -349 0
-125 -350 0
-121 -391 0
-122 -392 0
-123 -393 0
-124 -394 0
-125 -395 0
-121 -396 0
-122 -397 0
-123 -398 0
-124 -399 0
-125 -400 0
-121 -421 0
-122 -422 0
-123 -423 0
-124 -424 0
-125 -425 0
-121 -491 0
-122 -492 0
-123 -493 0
-124 -494 0
-125 -495 0
-126 -211 0
-127 -212 0
-128 -213 0
-129 -214 0
-130 -215 0
-126 -216 0
-127 -217 0
-128 -218 0
-129 -219 0
-130 -220 0
-126 -226 0
-127 -227 0
-128 -228 0
-129 -229 0
-130 -230 0
-126 -291 0
-127 -292 0
-128 -293 0
-129 -294 0
-130 -295 0
-126 -331 0
-127 -332 0
-128 -333 0
-129 -334 0
-130 -335 0
-126 -361 0
-127 -362 0
-128 -363 0
-129 -364 0
-130 -365 0
-126 -436 0
-127 -437 0
-128 -438 0
-129 -439 0
-130 -440 0
-126 -446 0
-127 -447 0
-128 -448 0
-129 -449 0
-130 -450 0
-131 -171 0
-132 -172 0
-133 -173 0
-134 -174 0
-135 -175 0
-131 -196 0
-132 -197 0
-133 -198 0
-134 -199 0
-135 -200 0
-131 -296 0
-132 -297 0
-133 -298 0
-134 -299 0
-135 -300 0
-131 -316 0
-132 -317 0
-133 -318 0
-134 -319 0
-135 -320 0
-131 -406 0
-132 -407 0
-133 -408 0
-134 -409 0
-135 -410 0
-131 -451 0
-132 -452 0
-133 -453 0
-134 -454 0
-135 -455 0
-136 -321 0
-137 -322 0
-138 -323 0
-139 -324 0
-140 -325 0
-141 -191 0
-142 -192 0
-143 -193 0
-144 -194 0
-145 -195 0
-146 -171 0
-147 -172 0
-148 -173 0
-149 -174 0
-150 -175 0
-146 -201 0
-147 -202 0
-148 -203 0
-149 -204 0
-150 -205 0
-146 -251 0
-147 -252 0
-148 -253 0
-149 -254 0
-150 -255 0
-146 -261 0
-147 -262 0
-148 -263 0
-149 -264 0
-150 -265 0
-146 -336 0
-147 -337 0
-148 -338 0
-149 -339 0
-150 -340 0
-146 -381 0
-147 -382 0
-148 -383 0
-149 -384 0
-150 -385 0
-146 -446 0
-147 -447 0
-148 -448 0
-149 -449 0
-150 -450 0
-146 -486 0
-147 -487 0
-148 -488 0
-149 -489 0
-150 -490 0
-151 -196 0
-152 -197 0
-153 -198 0
-154 -199 0
-155 -200 0
-151 -216 0
-152 -217 0
-153 -218 0
-154 -219 0
-155 -220 0
-151 -231 0
-152 -232 0
-153 -233 0
-154 -234 0
-155 -235 0
-151 -251 0
-152 -252 0
-153 -253 0
-154 -254 0
-155 -255 0
-151 -281 0
-152 -282 0
-153 -283 0
-154 -284 0
-155 -285 0
-151 -401 0
-152 -402 0
-153 -403 0
-154 -404 0
-155 -405 0
-151 -426 0
-152 -427 0
-153 -428 0
-154 -429 0
-155 -430 0
-151 -441 0
-152 -442 0
-153 -443 0
-154 -444 0
-155 -445 0
-151 -466 0
-152 -467 0
-153 -468 0
-154 -469 0
-155 -470 0
-156 -196 0
-157 -197 0
-158 -198 0
-159 -199 0
-160 -200 0
-156 -251 0
-157 -252 0
-158 -253 0
-159 -254 0
-160 -255 0
-156 -346 0
-157 -347 0
-158 -348 0
-159 -349 0
-160 -350 0
-156 -366 0
-157 -367 0
-158 -368 0
-159 -369 0
-160 -370 0
-156 -476 0
-157 -477 0
-158 -478 0
-159 -479 0
-160 -480 0
-161 -236 0
-162 -237 0
-163 -238 0
-164 -239 0
-165 -240 0
-161 -246 0
-162 -247 0
-163 -248 0
-164 -249 0
-165 -250 0
-161 -336 0
-162 -337 0
-163 -338 0
-164 -339 0
-165 -340 0
-161 -376 0
-162 -377 0
-163 -378 0
-164 -379 0
-165 -380 0
-161 -381 0
-162 -382 0
-163 -383 0
-164 -384 0
-165 -385 0
-161 -446 0
-162 -447 0
-163 -448 0
-164 -449 0
-165 -450 0
-161 -456 0
-162 -457 0
-163 -458 0
-164 -459 0
-165 -460 0
-161 -481 0
-162 -482 0
-163 -483 0
-164 -484 0
-165 -485 0
-161 -486 0
-162 -487 0
-163 -488 0
-164 -489 0
-165 -490 0
-166 -241 0
-167 -242 0
-168 -243 0
-169 -244 0
-170 -245 0
-166 -256 0
-167 -257 0
-168 -258 0
-169 -259 0
-170 -260 0
-166 -281 0
-167 -282 0
-168 -283 0
-169 -284 0
-170 -285 0
-166 -421 0
-167 -422 0
-168 -423 0
-169 -424 0
-170 -425 0
-171 -276 0
-172 -277 0
-173 -278 0
-174 -279 0
-175 -280 0
-171 -316 0
-172 -317 0
-173 -318 0
-174 -319 0
-175 -320 0
-171 -341 0
-172 -342 0
-173 -343 0
-174 -344 0
-175 -345 0
-171 -361 0
-172 -362 0
-173 -363 0
-174 -364 0
-175 -365 0
-171 -401 0
-172 -402 0
-173 -403 0
-174 -404 0
-175 -405 0
-176 -371 0
-177 -372 0
-178 -373 0
-179 -374 0
-180 -375 0
-176 -391 0
-177 -392 0
-178 -393 0
-179 -394 0
-180 -395 0
-176 -411 0
-177 -412 0
-178 -413 0
-179 -414 0
-180 -415 0
-176 -466 0
-177 -467 0
-178 -468 0
-179 -469 0
-180 -470 0
-181 -216 0
-182 -217 0
-183 -218 0
-184 -219 0
-185 -220 0
-181 -246 0
-182 -247 0
-183 -248 0
-184 -249 0
-185 -250 0
-181 -286 0
-182 -287 0
-183 -288 0
-184 -289 0
-185 -290 0
-181 -326 0
-182 -327 0
-183 -328 0
-184 -329 0
-185 -330 0
-181 -376 0
-182 -377 0
-183 -378 0
-184 -379 0
-185 -380 0
-181 -451 0
-182 -452 0
-183 -453 0
-184 -454 0
-185 -455 0
-186 -286 0
-187 -287 0
-188 -288 0
-189 -289 0
-190 -290 0
-186 -306 0
-187 -307 0
-188 -308 0
-189 -309 0
-190 -310 0
-186 -341 0
-187 -342 0
-188 -343 0
-189 -344 0
-190 -345 0
-186 -436 0
-187 -437 0
-188 -438 0
-189 -439 0
-190 -440 0
-191 -216 0
-192 -217 0
-193 -218 0
-194 -219 0
-195 -220 0
-191 -256 0
-192 -257 0
-193 -258 0
-194 -259 0
-195 -260 0
-191 -391 0
-192 -392 0
-193 -393 0
-194 -394 0
-195 -395 0
-191 -481 0
-192 -482 0
-193 -483 0
-194 -484 0
-195 -485 0
-196 -226 0
-197 -227 0
-198 -228 0
-199 -229 0
-200 -230 0
-196 -281 0
-197 -282 0
-198 -283 0
-199 -284 0
-200 -285 0
-196 -331 0
-197 -332 0
-198 -333 0
-199 -334 0
-200 -335 0
-196 -376 0
-197 -377 0
-198 -378 0
-199 -379 0
-200 -380 0
-196 -431 0
-197 -432 0
-198 -433 0
-199 -434 0
-200 -435 0
-201 -231 0
-202 -232 0
-203 -233 0
-204 -234 0
-205 -235 0
-201 -311 0
-202 -312 0
-203 -313 0
-204 -314 0
-205 -315 0
-201 -316 0
-202 -317 0
-203 -318 0
-204 -319 0
-205 -320 0
-201 -446 0
-202 -447 0
-203 -448 0
-204 -449 0
-205 -450 0
-206 -261 0
-207 -262 0
-208 -263 0
-209 -264 0
-210 -265 0
-206 -331 0
-207 -332 0
-208 -333 0
-209 -334 0
-210 -335 0
-206 -386 0
-207 -387 0
-208 -388 0
-209 -389 0
-210 -390 0
-206 -406 0
-207 -407 0
-208 -408 0
-209 -409 0
-210 -410 0
-206 -436 0
-207 -437 0
-208 -438 0
-209 -439 0
-210 -440 0
-206 -461 0
-207 -462 0
-208 -463 0
-209 -464 0
-210 -465 0
-206 -486 0
-207 -487 0
-208 -488 0
-209 -489 0
-210 -490 0
-211 -301 0
-212 -302 0
-213 -303 0
-214 -304 0
-215 -305 0
-211 -451 0
-212 -452 0
-213 -453 0
-214 -454 0
-215 -455 0
-216 -286 0
-217 -287 0
-218 -288 0
-219 -289 0
-220 -290 0
-216 -376 0
-217 -377 0
-218 -378 0
-219 -379 0
-220 -380 0
-216 -476 0
-217 -477 0
-218 -478 0
-219 -479 0
-220 -480 0
-221 -281 0
-222 -282 0
-223 -283 0
-224 -284 0
-225 -285 0
-221 -296 0
-222 -297 0
-223 -298 0
-224 -299 0
-225 -300 0
-221 -411 0
-222 -412 0
-223 -413 0
-224 -414 0
-225 -415 0
-221 -421 0
-222 -422 0
-223 -423 0
-224 -424 0
-225 -425 0
-226 -261 0
-227 -262 0
-228 -263 0
-229 -264 0
-230 -265 0
-226 -356 0
-227 -357 0
-228 -358 0
-229 -359 0
-230 -360 0
-226 -366 0
-227 -367 0
-228 -368 0
-229 -369 0
-230 -370 0
-226 -486 0
-227 -487 0
-228 -488 0
-229 -489 0
-230 -490 0
-231 -271 0
-232 -272 0
-233 -273 0
-234 -274 0
-235 -275 0
-231 -341 0
-232 -342 0
-233 -343 0
-234 -344 0
-235 -345 0
-231 -346 0
-232 -347 0
-233 -348 0
-234 -349 0
-235 -350 0
-231 -351 0
-232 -352 0
-233 -353 0
-234 -354 0
-235 -355 0
-231 -361 0
-232 -362 0
-233 -363 0
-234 -364 0
-235 -365 0
-231 -466 0
-232 -467 0
-233 -468 0
-234 -469 0
-235 -470 0
-236 -441 0
-237 -442 0
-238 -443 0
-239 -444 0
-240 -445 0
-236 -451 0
-237 -452 0
-238 -453 0
-239 -454 0
-240 -455 0
-236 -476 0
-237 -477 0
-238 -478 0
-239 -479 0
-240 -480 0
-241 -331 0
-242 -332 0
-243 -333 0
-244 -334 0
-245 -335 0
-241 -356 0
-242 -357 0
-243 -358 0
-244 -359 0
-245 -360 0
-241 -361 0
-242 -362 0
-243 -363 0
-244 -364 0
-245 -365 0
-241 -381 0
-242 -382 0
-243 -383 0
-244 -384 0
-245 -385 0
-241 -386 0
-242 -387 0
-243 -388 0
-244 -389 0
-245 -390 0
-241 -451 0
-242 -452 0
-243 -453 0
-244 -454 0
-245 -455 0
-246 -316 0
-247 -317 0
-248 -318 0
-249 -319 0
-250 -320 0
-246 -351 0
-247 -352 0
-248 -353 0
-249 -354 0
-250 -355 0
-246 -381 0
-247 -382 0
-248 -383 0
-249 -384 0
-250 -385 0
-246 -406 0
-247 -407 0
-248 -408 0
-249 -409 0
-250 -410 0
-251 -281 0
-252 -282 0
-253 -283 0
-254 -284 0
-255 -285 0
-251 -316 0
-252 -317 0
-253 -318 0
-254 -319 0
-255 -320 0
-251 -346 0
-252 -347 0
-253 -348 0
-254 -349 0
-255 -350 0
-251 -391 0
-252 -392 0
-253 -393 0
-254 -394 0
-255 -395 0
-251 -401 0
-252 -402 0
-253 -403 0
-254 -404 0
-255 -405 0
-251 -411 0
-252 -412 0
-253 -413 0
-254 -414 0
-255 -415 0
-251 -421 0
-252 -422 0
-253 -423 0
-254 -424 0
-255 -425 0
-256 -301 0
-257 -302 0
-258 -303 0
-259 -304 0
-260 -305 0
-256 -371 0
-257 -372 0
-258 -373 0
-259 -374 0
-260 -375 0
-256 -386 0
-257 -387 0
-258 -388 0
-259 -389 0
-260 -390 0
-256 -396 0
-257 -397 0
-258 -398 0
-259 -399 0
-260 -400 0
-261 -486 0
-262 -487 0
-263 -488 0
-264 -489 0
-265 -490 0
-266 -331 0
-267 -332 0
-268 -333 0
-269 -334 0
-270 -335 0
-266 -446 0
-267 -447 0
-268 -448 0
-269 -449 0
-270 -450 0
-271 -341 0
-272 -342 0
-273 -343 0
-274 -344 0
-275 -345 0
-271 -411 0
-272 -412 0
-273 -413 0
-274 -414 0
-275 -415 0
-271 -421 0
-272 -422 0
-273 -423 0
-274 -424 0
-275 -425 0
-271 -441 0
-272 -442 0
-273 -443 0
-274 -444 0
-275 -445 0
-271 -476 0
-272 -477 0
-273 -478 0
-274 -479 0
-275 -480 0
-276 -321 0
-277 -322 0
-278 -323 0
-279 -324 0
-280 -325 0
-276 -336 0
-277 -337 0
-278 -338 0
-279 -339 0
-280 -340 0
-276 -381 0
-277 -382 0
-278 -383 0
-279 -384 0
-280 -385 0
-276 -396 0
-277 -397 0
-278 -398 0
-279 -399 0
-280 -400 0
-276 -401 0
-277 -402 0
-278 -403 0
-279 -404 0
-280 -405 0
-276 -411 0
-277 -412 0
-278 -413 0
-279 -414 0
-280 -415 0
-276 -441 0
-277 -442 0
-278 -443 0
-279 -444 0
-280 -445 0
-276 -471 0
-277 -472 0
-278 -473 0
-279 -474 0
-280 -475 0
-281 -336 0
-282 -337 0
-283 -338 0
-284 -339 0
-285 -340 0
-281 -371 0
-282 -372 0
-283 -373 0
-284 -374 0
-285 -375 0
-281 -401 0
-282 -402 0
-283 -403 0
-284 -404 0
-285 -405 0
-281 -416 0
-282 -417 0
-283 -418 0
-284 -419 0
-285 -420 0
-281 -426 0
-282 -427 0
-283 -428 0
-284 -429 0
-285 -430 0
-281 -491 0
-282 -492 0
-283 -493 0
-284 -494 0
-285 -495 0
-286 -391 0
-287 -392 0
-288 -393 0
-289 -394 0
-290 -395 0
-286 -401 0
-287 -402 0
-288 -403 0
-289 -404 0
-290 -405 0
-291 -396 0
-292 -397 0
-293 -398 0
-294 -399 0
-295 -400 0
-291 -441 0
-292 -442 0
-293 -443 0
-294 -444 0
-295 -445 0
-291 -456 0
-292 -457 0
-293 -458 0
-294 -459 0
-295 -460 0
-296 -406 0
-297 -407 0
-298 -408 0
-299 -409 0
-300 -410 0
-296 -421 0
-297 -422 0
-298 -423 0
-299 -424 0
-300 -425 0
-296 -486 0
-297 -487 0
-298 -488 0
-299 -489 0
-300 -490 0
-296 -491 0
-297 -492 0
-298 -493 0
-299 -494 0
-300 -495 0
-301 -346 0
-302 -347 0
-303 -348 0
-304 -349 0
-305 -350 0
-301 -366 0
-302 -367 0
-303 -368 0
-304 -369 0
-305 -370 0
-301 -471 0
-302 -472 0
-303 -473 0
-304 -474 0
-305 -475 0
-306 -351 0
-307 -352 0
-308 -353 0
-309 -354 0
-310 -355 0
-306 -401 0
-307 -402 0
-308 -403 0
-309 -404 0
-310 -405 0
-306 -471 0
-307 -472 0
-308 -473 0
-309 -474 0
-310 -475 0
-306 -481 0
-307 -482 0
-308 -483 0
-309 -484 0
-310 -485 0
-311 -396 0
-312 -397 0
-313 -398 0
-314 -399 0
-315 -400 0
-311 -446 0
-312 -447 0
-313 -448 0
-314 -449 0
-315 -450 0
-311 -456 0
-312 -457 0
-313 -458 0
-314 -459 0
-315 -460 0
-311 -496 0
-312 -497 0
-313 -498 0
-314 -499 0
-315 -500 0
-316 -351 0
-317 -352 0
-318 -353 0
-319 -354 0
-320 -355 0
-316 -401 0
-317 -402 0
-318 -403 0
-319 -404 0
-320 -405 0
-316 -406 0
-317 -407 0
-318 -408 0
-319 -409 0
-320 -410 0
-321 -461 0
-322 -462 0
-323 -463 0
-324 -464 0
-325 -465 0
-326 -466 0
-327 -467 0
-328 -468 0
-329 -469 0
-330 -470 0
-326 -471 0
-327 -472 0
-328 -473 0
-329 -474 0
-330 -475 0
-336 -421 0
-337 -422 0
-338 -423 0
-339 -424 0
-340 -425 0
-336 -446 0
-337 -447 0
-338 -448 0
-339 -449 0
-340 -450 0
-336 -491 0
-337 -492 0
-338 -493 0
-339 -494 0
-340 -495 0
-336 -496 0
-337 -497 0
-338 -498 0
-339 -499 0
-340 -500 0
-341 -446 0
-342 -447 0
-343 -448 0
-344 -449 0
-345 -450 0
-341 -461 0
-342 -462 0
-343 -463 0
-344 -464 0
-345 -465 0
-346 -401 0
-347 -402 0
-348 -403 0
-349 -404 0
-350 -405 0
-346 -436 0
-347 -437 0
-348 -438 0
-349 -439 0
-350 -440 0
-346 -466 0
-347 -467 0
-348 -468 0
-349 -469 0
-350 -470 0
-351 -436 0
-352 -437 0
-353 -438 0
-354 -439 0
-355 -440 0
-351 -496 0
-352 -497 0
-353 -498 0
-354 -499 0
-355 -500 0
-356 -441 0
-357 -442 0
-358 -443 0
-359 -444 0
-360 -445 0
-356 -456 0
-357 -457 0
-358 -458 0
-359 -459 0
-360 -460 0
-361 -416 0
-362 -417 0
-363 -418 0
-364 -419 0
-365 -420 0
-361 -446 0
-362 -447 0
-363 -448 0
-364 -449 0
-365 -450 0
-361 -461 0
-362 -462 0
-363 -463 0
-364 -464 0
-365 -465 0
-361 -496 0
-362 -497 0
-363 -498 0
-364 -499 0
-365 -500 0
-366 -456 0
-367 -457 0
-368 -458 0
-369 -459 0
-370 -460 0
-366 -491 0
-367 -492 0
-368 -493 0
-369 -494 0
-370 -495 0
-366 -496 0
-367 -497 0
-368 -498 0
-369 -499 0
-370 -500 0
-371 -421 0
-372 -422 0
-373 -423 0
-374 -424 0
-375 -425 0
-371 -441 0
-372 -442 0
-373 -443 0
-374 -444 0
-375 -445 0
-371 -481 0
-372 -482 0
-373 -483 0
-374 -484 0
-375 -485 0
-376 -406 0
-377 -407 0
-378 -408 0
-379 -409 0
-380 -410 0
-376 -466 0
-377 -467 0
-378 -468 0
-379 -469 0
-380 -470 0
-381 -461 0
-382 -462 0
-383 -463 0
-384 -464 0
-385 -465 0
-391 -466 0
-392 -467 0
-393 -468 0
-394 -469 0
-395 -470 0
-396 -421 0
-397 -422 0
-398 -423 0
-399 -424 0
-400 -425 0
-396 -436 0
-397 -437 0
-398 -438 0
-399 -439 0
-400 -440 0
-401 -451 0
-402 -452 0
-403 -453 0
-404 -454 0
-405 -455 0
-406 -446 0
-407 -447 0
-408 -448 0
-409 -449 0
-410 -450 0
-411 -436 0
-412 -437 0
-413 -438 0
-414 -439 0
-415 -440 0
-416 -476 0
-417 -477 0
-418 -478 0
-419 -479 0
-420 -480 0
-426 -466 0
-427 -467 0
-428 -468 0
-429 -469 0
-430 -470 0
-431 -466 0
-432 -467 0
-433 -468 0
-434 -469 0
-435 -470 0
-431 -481 0
-432 -482 0
-433 -483 0
-434 -484 0
-435 -485 0
-436 -491 0
-437 -492 0
-438 -493 0
-439 -494 0
-440 -495 0
-436 -496 0
-437 -497 0
-438 -498 0
-439 -499 0
-440 -500 0
-446 -486 0
-447 -487 0
-448 -488 0
-449 -489 0
-450 -490 0
-446 -491 0
-447 -492 0
-448 -493 0
-449 -494 0
-450 -495 0
